isotropic conv opti prop phonon dynnamical_matrix thermal
title
ASE calculation
end

cell
21.889317 21.889317 21.889317 90.00000 90.00000 90.00000
frac
 Si core  0.4506127   0.5892408   0.8988763
 Si core  0.9872787   0.0734751   0.0162464
 Si core  0.0905372   0.2097019   0.0824928
 Si core  0.2595243   0.9181075   0.1039384
 Si core  0.2391033   0.0329341   0.3774273
 Si core  0.4807439   0.0347005   0.4889482
 Si core  0.7538138   0.6228172   0.3801686
 Si core  0.4324319   0.4823986   0.9010977
 Si core  0.5194939   0.1332699   0.4734068
 Si core  0.2145338   0.5126169   0.5577509
 Si core  0.1871587   0.0071907   0.9210485
 Si core  0.2521057   0.6830987   0.7686296
 Si core  0.4246464   0.9552275   0.1138895
 Si core  0.8805224   0.2755840   0.5188744
 Si core  0.1764785   0.8418280   0.8747729
 Si core  0.1743487   0.0815310   0.8413154
 Si core  0.9160294   0.1179978   0.5907488
 Si core  0.2037100   0.1929070   0.9564455
 Si core  0.8551239   0.8075379   0.8149876
 Si core  0.3772496   0.7888145   0.6922326
 Si core  0.8711540   0.7082935   0.8481405
 Si core  0.8348829   0.1364926   0.6583664
 Si core  0.0177009   0.7587566   0.9047495
 Si core  0.3900942   0.9146994   0.4628653
 Si core  0.6990362   0.2666943   0.3511024
 Si core  0.9378541   0.9072852   0.1295878
 Si core  0.0027571   0.1253252   0.4067908
 Si core  0.7108978   0.5634455   0.9794652
 Si core  0.5328935   0.2389804   0.3418289
 Si core  0.3430520   0.8048989   0.0166612
 Si core  0.1516668   0.0365570   0.0195729
 Si core  0.6534126   0.0497952   0.0710175
 Si core  0.9999854   0.5880742   0.2042374
 Si core  0.6348560   0.7154656   0.6526351
 Si core  0.4823956   0.7079487   0.2134675
 Si core  0.5596102   0.3298924   0.5548554
 Si core  0.0494850   0.7001043   0.4158622
 Si core  0.4658258   0.0041668   0.6639373
 Si core  0.1323232   0.5762976   0.5883127
 Si core  0.0194391   0.5619717   0.4654353
 Si core  0.6180937   0.2281597   0.0130838
 Si core  0.4073833   0.2517737   0.6732674
 Si core  0.6015590   0.6202126   0.6106962
 Si core  0.7963370   0.2899481   0.5835713
 Si core  0.9515304   0.3503736   0.2006290
 Si core  0.4875642   0.3805947   0.1339369
 Si core  0.4641149   0.3738632   0.7754147
 Si core  0.2164729   0.2611339   0.3392756
 Si core  0.7183195   0.2295209   0.7419525
 Si core  0.9906797   0.5773363   0.0959039
 Si core  0.6475267   0.2685283   0.1098394
 Si core  0.3087161   0.0710618   0.0629044
 Si core  0.3807966   0.0498872   0.1415818
 Si core  0.8034802   0.8321994   0.0444814
 Si core  0.8056919   0.2114591   0.0870369
 Si core  0.4063052   0.8555972   0.8636186
 Si core  0.7048609   0.9730200   0.2618167
 Si core  0.7872793   0.2183943   0.9800150
 Si core  0.1645068   0.6933946   0.5108034
 Si core  0.8655178   0.7025296   0.6849050
 Si core  0.8584080   0.4021140   0.2014328
 Si core  0.9849108   0.7767351   0.3446380
 Si core  0.2119869   0.3659181   0.8977729
 Si core  0.7265995   0.6486299   0.9160328
 Si core  0.2234832   0.7075012   0.9914222
 Si core  0.3534585   0.0192009   0.9778044
 Si core  0.5211787   0.9401684   0.7339517
 Si core  0.1300755   0.3050415   0.2209600
 Si core  0.6155069   0.2269307   0.7003913
 Si core  0.2378537   0.3451421   0.6322165
 Si core  0.4154351   0.1664075   0.6100157
 Si core  0.9185567   0.5384450   0.9491349
 Si core  0.9376810   0.6479626   0.4418067
 Si core  0.4463638   0.3707072   0.4302062
 Si core  0.4330283   0.4335010   0.6173689
 Si core  0.5747909   0.3293856   0.6616359
 Si core  0.1549850   0.4710905   0.2338209
 Si core  0.6932019   0.3480789   0.2790426
 Si core  0.8627855   0.4062071   0.3535929
 Si core  0.8816822   0.1260883   0.7541144
 Si core  0.6724885   0.3336973   0.9064215
 Si core  0.4004693   0.6381812   0.9806203
 Si core  0.3495366   0.7821581   0.1218156
 Si core  0.0773249   0.7949144   0.2873204
 Si core  0.6338286   0.1140180   0.3229540
 Si core  0.2115862   0.1810740   0.8520392
 Si core  0.1849874   0.5728095   0.2181319
 Si core  0.4395604   0.1974880   0.5072584
 Si core  0.5878485   0.4563146   0.0123206
 Si core  0.3818136   0.0936608   0.3057217
 Si core  0.5872033   0.8417793   0.8591951
 Si core  0.8514899   0.4968100   0.8738566
 Si core  0.0539089   0.5069064   0.6016007
 Si core  0.9269286   0.4413000   0.4295385
 Si core  0.0472610   0.4278090   0.2306033
 Si core  0.3693924   0.5724896   0.6939412
 Si core  0.2092703   0.4353832   0.1511815
 Si core  0.1122564   0.1275579   0.5560818
 Si core  0.9533200   0.4329306   0.6892204
 Si core  0.4833377   0.0596377   0.3144447
 Si core  0.9958801   0.7423125   0.0120609
 Si core  0.2463153   0.8594168   0.7922435
 Si core  0.8212331   0.7044766   0.3607017
 Si core  0.7299088   0.5401411   0.5323803
 Si core  0.1597514   0.5817728   0.6913466
 Si core  0.0037539   0.2880668   0.3626913
 Si core  0.7887768   0.5404081   0.4408079
 Si core  0.1893373   0.7361298   0.6071322
 Si core  0.0596667   0.4223314   0.6728272
 Si core  0.0017322   0.7208470   0.5740044
 Si core  0.9219779   0.3750632   0.5140322
 Si core  0.3212805   0.9253353   0.8350287
 Si core  0.5008233   0.9684109   0.5708421
 Si core  0.7916687   0.9795384   0.6718918
 Si core  0.5552085   0.0266099   0.7877267
 Si core  0.1015641   0.8574034   0.1233522
 Si core  0.7529877   0.9437149   0.8501210
 Si core  0.7819006   0.3275657   0.2188750
 Si core  0.8843066   0.4783101   0.2723728
 Si core  0.6354343   0.8280391   0.4489813
 Si core  0.6792016   0.1039045   0.1564397
 Si core  0.8872057   0.3759329   0.7462749
 Si core  0.3336673   0.4003369   0.0091635
 Si core  0.6351352   0.1985372   0.1891475
 Si core  0.9014101   0.4014188   0.8499102
 Si core  0.8807977   0.9727281   0.7292417
 Si core  0.8583820   0.2276176   0.4255454
 Si core  0.2502968   0.4528344   0.6406096
 Si core  0.6455356   0.1654184   0.8594300
 Si core  0.5345049   0.2787654   0.9647400
 Si core  0.9647042   0.8435362   0.4274168
 Si core  0.4955780   0.8563079   0.7997227
 Si core  0.5370840   0.1367161   0.3666420
 Si core  0.0408281   0.9457107   0.1311205
 Si core  0.3703606   0.2026833   0.9658865
 Si core  0.8194962   0.7029841   0.9395241
 Si core  0.5452911   0.8808736   0.2384501
 Si core  0.1801615   0.6323898   0.9270244
 Si core  0.7699752   0.9160786   0.1957471
 Si core  0.0069232   0.8643825   0.7785228
 Si core  0.7946979   0.4176634   0.7092486
 Si core  0.6528000   0.5273520   0.1555278
 Si core  0.0561693   0.3312990   0.6205484
 Si core  0.2780275   0.4997892   0.0033414
 Si core  0.4733525   0.6841066   0.0423046
 Si core  0.1210510   0.0192689   0.5587436
 Si core  0.5740713   0.3765674   0.9370350
 Si core  0.2810156   0.9552710   0.9315327
 Si core  0.7032492   0.3966892   0.7567676
 Si core  0.8940083   0.1258792   0.4097072
 Si core  0.5078427   0.3897082   0.2874652
 Si core  0.2881813   0.3696866   0.1803397
 Si core  0.0326112   0.5453152   0.8119578
 Si core  0.6226137   0.3935659   0.4092385
 Si core  0.7961133   0.1596068   0.2572470
 Si core  0.0297154   0.1746845   0.4994199
 Si core  0.8440301   0.1468885   0.9194182
 Si core  0.4937200   0.6154930   0.5954260
 Si core  0.0240845   0.3598039   0.5239476
 Si core  0.3273105   0.7169608   0.9590930
 Si core  0.5327502   0.9711671   0.9782018
 Si core  0.2234585   0.9748787   0.5494042
 Si core  0.0479779   0.4096293   0.1193665
 Si core  0.2994325   0.8590506   0.3172462
 Si core  0.8512442   0.0499232   0.1218285
 Si core  0.6208971   0.2589132   0.5053894
 Si core  0.8656575   0.9667614   0.1850365
 Si core  0.6508754   0.9263762   0.4931285
 Si core  0.0006390   0.5916100   0.9024336
 Si core  0.1299578   0.4227694   0.7567617
 Si core  0.3234697   0.7123009   0.4189363
 Si core  0.6596990   0.5300651   0.2673863
 Si core  0.0485842   0.9827291   0.4874426
 Si core  0.3579920   0.5977079   0.1406759
 Si core  0.5174608   0.5394565   0.3917894
 Si core  0.8958740   0.5411216   0.4658873
 Si core  0.9106133   0.9350130   0.4070723
 Si core  0.5637820   0.7804004   0.1982830
 Si core  0.8863395   0.9027741   0.0329361
 Si core  0.4959187   0.7942817   0.5491040
 Si core  0.2117330   0.8972603   0.2672463
 Si core  0.5931982   0.6800131   0.3524955
 Si core  0.3771228   0.5222264   0.4831204
 Si core  0.4429827   0.7006674   0.5475117
 Si core  0.2389821   0.0016971   0.2712551
 Si core  0.9889009   0.0806984   0.2064437
 Si core  0.1474555   0.2712617   0.4972097
 Si core  0.8354158   0.5665685   0.2273428
 Si core  0.1264892   0.8077309   0.6592427
 Si core  0.5655556   0.6273476   0.0544945
 Si core  0.8470045   0.2538037   0.2623662
 Si core  0.9012207   0.2745489   0.7145666
 Si core  0.9938397   0.2468553   0.0520703
 Si core  0.7920917   0.3938972   0.6064852
 Si core  0.4869586   0.1099120   0.7704756
 Si core  0.5911156   0.8900737   0.6661366
 Si core  0.3066623   0.7737438   0.7742419
 Si core  0.6726898   0.8111702   0.8001942
 Si core  0.7429946   0.3891500   0.9640081
 Si core  0.4910387   0.1093104   0.6618332
 Si core  0.0459836   0.2751289   0.4632288
 Si core  0.5793981   0.7905618   0.0876343
 Si core  0.3104111   0.2261592   0.7212004
 Si core  0.7584759   0.7929198   0.9541425
 Si core  0.7346973   0.3101604   0.8163654
 Si core  0.7615869   0.8298363   0.6486384
 Si core  0.5458591   0.2371744   0.2363232
 Si core  0.2956245   0.3455170   0.4631491
 Si core  0.7239911   0.3846526   0.4716098
 Si core  0.6889176   0.9811956   0.9285907
 Si core  0.7985705   0.7785515   0.4345853
 Si core  0.7049987   0.1244650   0.4730796
 Si core  0.5064513   0.6008300   0.2232922
 Si core  0.7703621   0.8486981   0.3604310
 Si core  0.3608566   0.9865127   0.6678269
 Si core  0.5553382   0.5244578   0.4950095
 Si core  0.2172170   0.0518237   0.7456988
 Si core  0.3325418   0.7561302   0.3205222
 Si core  0.3749700   0.0204724   0.4823252
 Si core  0.2742310   0.3259464   0.7315971
 Si core  0.0513650   0.1726448   0.6835828
 Si core  0.1268399   0.1401636   0.0074573
 Si core  0.1199893   0.8868728   0.3212563
 Si core  0.8376281   0.3148686   0.8670265
 Si core  0.9317727   0.8815673   0.7055202
 Si core  0.0970644   0.6179871   0.7690507
 Si core  0.9660999   0.6737767   0.6624221
 Si core  0.1200036   0.9295727   0.8905603
 Si core  0.2533411   0.7153211   0.2638933
 Si core  0.1832859   0.1684624   0.4880616
 Si core  0.9701609   0.5698412   0.6356978
 Si core  0.7979474   0.5751955   0.6073091
 Si core  0.3253462   0.6068459   0.7838923
 Si core  0.0955392   0.6323609   0.2264946
 Si core  0.1622162   0.1013781   0.4018045
 Si core  0.3545264   0.5544606   0.3102645
 Si core  0.5759057   0.5012979   0.8259019
 Si core  0.4636536   0.3041489   0.5151667
 Si core  0.2643957   0.2442039   0.0948204
 Si core  0.2105259   0.4430046   0.3198021
 Si core  0.6671011   0.6639121   0.4330876
 Si core  0.3177379   0.1914366   0.8204333
 Si core  0.9934551   0.2330522   0.9461534
 Si core  0.9686818   0.3421371   0.0918581
 Si core  0.9039627   0.2288684   0.8854034
 Si core  0.8217830   0.7357271   0.0935131
 Si core  0.8927977   0.2976494   0.3507194
 Si core  0.6109659   0.1550157   0.5248997
 Si core  0.4732498   0.5985521   0.6987298
 Si core  0.3092019   0.2645011   0.3941949
 Si core  0.2708446   0.1973224   0.1929715
 Si core  0.3473685   0.1803976   0.4496949
 Si core  0.4873430   0.1296449   0.9188648
 Si core  0.1283231   0.2516523   0.8238177
 Si core  0.3533590   0.8873145   0.1527443
 Si core  0.9236667   0.6848260   0.3393938
 Si core  0.9284418   0.8485150   0.2788310
 Si core  0.9329016   0.2446927   0.2024071
 Si core  0.3164176   0.0276789   0.5752539
 Si core  0.8195494   0.8458996   0.2662252
 Si core  0.6828843   0.0569351   0.3936588
 Si core  0.3336510   0.0822507   0.4026267
 Si core  0.2071523   0.5139495   0.0784128
 Si core  0.6029964   0.1224548   0.0124311
 Si core  0.5402878   0.0404999   0.8944937
 Si core  0.1039605   0.6425846   0.3376102
 Si core  0.2202037   0.9483397   0.4445947
 Si core  0.4230234   0.6775847   0.4427741
 Si core  0.3122392   0.1297418   0.6064830
 Si core  0.5117894   0.9908166   0.3969915
 Si core  0.8926115   0.4336693   0.5971627
 Si core  0.9517947   0.0508711   0.7332737
 Si core  0.3623245   0.8829534   0.6389865
 Si core  0.2069618   0.4931505   0.7310791
 Si core  0.9111589   0.0279735   0.2599767
 Si core  0.6496094   0.0533753   0.6406740
 Si core  0.2381892   0.2896657   0.2363508
 Si core  0.4142578   0.5434515   0.2204412
 Si core  0.9133419   0.6418517   0.2377174
 Si core  0.5575723   0.5871181   0.8854123
 Si core  0.2577947   0.8895883   0.6107391
 Si core  0.6398482   0.7061717   0.0615716
 Si core  0.0054520   0.0267088   0.8212183
 Si core  0.4007669   0.3290353   0.5962342
 Si core  0.9905865   0.5065738   0.2733851
 Si core  0.5921600   0.3562694   0.1388844
 Si core  0.7317656   0.9873518   0.0275071
 Si core  0.4804513   0.7800797   0.7229135
 Si core  0.1869335   0.3392032   0.7948057
 Si core  0.5126601   0.4234161   0.8609844
 Si core  0.0701426   0.0405548   0.3985256
 Si core  0.1509017   0.2866703   0.6037257
 Si core  0.7049399   0.7528215   0.4849695
 Si core  0.2283759   0.6590789   0.6691039
 Si core  0.4312548   0.2893705   0.1128598
 Si core  0.7654144   0.0143200   0.3425807
 Si core  0.9479326   0.9053303   0.9416555
 Si core  0.1612417   0.7360631   0.3215417
 Si core  0.7541513   0.9524433   0.5014235
 Si core  0.2526165   0.7610445   0.1642280
 Si core  0.5902693   0.3374264   0.2413205
 Si core  0.2470317   0.6430886   0.4581805
 Si core  0.6385700   0.5938353   0.5131198
 Si core  0.1229834   0.5111776   0.0089672
 Si core  0.9521748   0.8130571   0.1810285
 Si core  0.3554823   0.4285296   0.4307052
 Si core  0.8264094   0.3224780   0.9714604
 Si core  0.6882428   0.2324522   0.9353634
 Si core  0.6334974   0.0772270   0.9201497
 Si core  0.3638277   0.7542382   0.8625225
 Si core  0.4930451   0.2770688   0.7374131
 Si core  0.4539906   0.3093682   0.3414934
 Si core  0.8378446   0.0006296   0.0296338
 Si core  0.0684212   0.1057752   0.8493039
 Si core  0.0311130   0.4876031   0.0522622
 Si core  0.3601812   0.2834131   0.3022773
 Si core  0.0864394   0.6044339   0.9700769
 Si core  0.1511165   0.1756233   0.3270537
 Si core  0.8954297   0.0620159   0.9641498
 Si core  0.4864040   0.2363024   0.8754525
 Si core  0.5099742   0.4206171   0.6904783
 Si core  0.4522640   0.2102181   0.1856282
 Si core  0.6864544   0.4414970   0.3301207
 Si core  0.1582948   0.4605338   0.9173998
 Si core  0.8898305   0.6935708   0.0218375
 Si core  0.9434236   0.1011593   0.1111371
 Si core  0.5914601   0.1426075   0.6315525
 Si core  0.0403096   0.1379272   0.9479515
 Si core  0.0524423   0.8747875   0.4837662
 Si core  0.3035455   0.3017549   0.5596544
 Si core  0.5291841   0.8114684   0.4468186
 Si core  0.2940067   0.5758863   0.5271979
 Si core  0.8869116   0.8088348   0.4913626
 Si core  0.1613024   0.2947569   0.9600857
 Si core  0.7015508   0.4419239   0.5646528
 Si core  0.3731361   0.2653993   0.8784263
 Si core  0.6319486   0.8776209   0.0538448
 Si core  0.3200152   0.0139193   0.7665078
 Si core  0.2608487   0.6087916   0.2853699
 Si core  0.1641385   0.4586309   0.4811393
 Si core  0.1396013   0.3610861   0.1300306
 Si core  0.6950269   0.1894929   0.2806030
 Si core  0.8255190   0.5473749   0.1180569
 Si core  0.0504496   0.9101514   0.9699610
 Si core  0.4415496   0.4347403   0.2166856
 Si core  0.6290277   0.5347822   0.6760419
 Si core  0.7279600   0.6829238   0.1185990
 Si core  0.8166867   0.6813032   0.5933564
 Si core  0.8617935   0.5517163   0.7797939
 Si core  0.0710884   0.9480338   0.7983293
 Si core  0.8000571   0.9112247   0.5901642
 Si core  0.6355603   0.7458692   0.2763283
 Si core  0.0490008   0.8210239   0.5819955
 Si core  0.6139942   0.9044976   0.9455571
 Si core  0.3423274   0.0180853   0.2408436
 Si core  0.9523058   0.2115253   0.5626340
 Si core  0.9126951   0.2029052   0.1067481
 Si core  0.0595933   0.9742726   0.3113887
 Si core  0.2668582   0.7912854   0.4626887
 Si core  0.0045759   0.0822260   0.6462411
 Si core  0.0724428   0.0125095   0.2105100
 Si core  0.6070900   0.9626717   0.5878635
 Si core  0.2868689   0.1716495   0.0220219
 Si core  0.1384283   0.9750281   0.7171097
 Si core  0.7143354   0.1302316   0.7873589
 Si core  0.2724922   0.7894124   0.5687249
 Si core  0.2011956   0.8567912   0.1669226
 Si core  0.3182480   0.4545554   0.3317915
 Si core  0.6343470   0.0522403   0.2362354
 Si core  0.2055021   0.6915133   0.0991817
 Si core  0.5818122   0.9702651   0.0785460
 Si core  0.0832656   0.8214857   0.0217621
 Si core  0.8059721   0.2362703   0.6757419
 Si core  0.4726944   0.8919888   0.3983739
 Si core  0.6543481   0.0469953   0.7471824
 Si core  0.2397073   0.1453618   0.6861637
 Si core  0.8898981   0.5361034   0.5728710
 Si core  0.4979104   0.1333376   0.0350834
 Si core  0.3463313   0.4432944   0.8475918
 Si core  0.8810334   0.7316578   0.1832432
 Si core  0.4867535   0.6823070   0.7653740
 Si core  0.3188467   0.3599605   0.9099042
 Si core  0.0799517   0.4568187   0.8438822
 Si core  0.9656535   0.4471355   0.9778517
 Si core  0.7431321   0.3944992   0.0716922
 Si core  0.1940921   0.8846285   0.6976384
 Si core  0.8784141   0.0708914   0.5019219
 Si core  0.0563052   0.7841347   0.1825630
 Si core  0.6684489   0.7294720   0.9611417
 Si core  0.0993486   0.2072359   0.1882013
 Si core  0.9280029   0.9956729   0.8897821
 Si core  0.1486233   0.1853865   0.6404423
 Si core  0.9561827   0.9480000   0.3116969
 Si core  0.4066734   0.6592116   0.8305157
 Si core  0.7836272   0.1276730   0.1540969
 Si core  0.7181574   0.9618276   0.7493629
 Si core  0.4288912   0.8479326   0.9709384
 Si core  0.9887961   0.2543953   0.6516545
 Si core  0.5192182   0.9559180   0.1645452
 Si core  0.1920838   0.3591951   0.4567906
 Si core  0.7325313   0.8968574   0.0910879
 Si core  0.0209032   0.6895428   0.7513237
 Si core  0.0557102   0.9924294   0.0363422
 Si core  0.9010436   0.8981783   0.5560054
 Si core  0.3553231   0.7272242   0.6052120
 Si core  0.6663486   0.8279931   0.3447003
 Si core  0.4703334   0.1124536   0.1423281
 Si core  0.7615623   0.8378953   0.8569477
 Si core  0.1998902   0.6017182   0.3720487
 Si core  0.9044581   0.7100853   0.5267243
 Si core  0.0694307   0.3559457   0.3117718
 Si core  0.0430929   0.1928564   0.3349433
 Si core  0.5720364   0.5836435   0.3081568
 Si core  0.0657848   0.6489874   0.5213723
 Si core  0.5089576   0.7767655   0.0007605
 Si core  0.2751916   0.5178566   0.8160974
 Si core  0.2628331   0.8753407   0.0047291
 Si core  0.0476067   0.6583369   0.0548428
 Si core  0.7244274   0.2829668   0.5052001
 Si core  0.0098877   0.1797955   0.2367103
 Si core  0.0654155   0.2989188   0.9051842
 Si core  0.3324662   0.3275280   0.0928951
 Si core  0.3639455   0.5574818   0.0392891
 Si core  0.2325774   0.5385733   0.9114252
 Si core  0.9391475   0.9817811   0.4981613
 Si core  0.8101297   0.0999682   0.8279674
 Si core  0.5393343   0.5172304   0.7267540
 Si core  0.3562052   0.3861471   0.2591938
 Si core  0.9392369   0.2084700   0.7888428
 Si core  0.1639792   0.6739540   0.8309902
 Si core  0.4335964   0.8825374   0.5573511
 Si core  0.9508523   0.8330617   0.8637046
 Si core  0.5740121   0.7526808   0.9137733
 Si core  0.8046278   0.7412774   0.2595666
 Si core  0.1833238   0.8071180   0.9769950
 Si core  0.8265367   0.6525855   0.7729493
 Si core  0.5035125   0.4699386   0.0769926
 Si core  0.7161183   0.6921672   0.2267165
 Si core  0.7250574   0.7431539   0.5932679
 Si core  0.4164716   0.5773166   0.4004184
 Si core  0.1643474   0.7680032   0.4270341
 Si core  0.2460180   0.5983004   0.1329595
 Si core  0.8421943   0.9965362   0.8277352
 Si core  0.2211153   0.0198899   0.0999290
 Si core  0.5540456   0.7911683   0.6421200
 Si core  0.0541239   0.5383864   0.3631852
 Si core  0.7497116   0.4840591   0.9130504
 Si core  0.7729423   0.0562306   0.5212753
 Si core  0.1037827   0.6957056   0.1385477
 Si core  0.7017140   0.5517610   0.7543744
 Si core  0.1415712   0.8736003   0.4250114
 Si core  0.1667008   0.2826055   0.0675256
 Si core  0.1799018   0.1481234   0.2252595
 Si core  0.7497443   0.2981709   0.1204908
 Si core  0.8942582   0.3880352   0.0315891
 Si core  0.0062649   0.3932608   0.8898654
 Si core  0.3685408   0.9123653   0.2563766
 Si core  0.6090116   0.2863494   0.4013999
 Si core  0.6034933   0.5592123   0.9791622
 Si core  0.8967643   0.5886691   0.0457097
 Si core  0.4997721   0.7277429   0.3853474
 Si core  0.5251387   0.4332989   0.3849170
 Si core  0.2802397   0.1960992   0.5302504
 Si core  0.6456698   0.4222439   0.6628346
 Si core  0.6819521   0.4761134   0.8262324
 Si core  0.3667666   0.1890962   0.2483187
 Si core  0.6255423   0.9167757   0.3070221
 Si core  0.7911462   0.5240409   0.7052764
 Si core  0.4561148   0.2339048   0.0248694
 Si core  0.8336416   0.4409231   0.1048302
 Si core  0.0609805   0.4594645   0.5013351
 Si core  0.6161453   0.9731196   0.4017628
 Si core  0.6525965   0.7117006   0.7636263
 Si core  0.3511979   0.4682014   0.6756889
 Si core  0.5715076   0.6805410   0.8308931
 Si core  0.1752711   0.0458508   0.1967737
 Si core  0.7417523   0.5988636   0.2754608
 Si core  0.8431416   0.0854093   0.3205463
 Si core  0.1682720   0.3533712   0.3547884
 Si core  0.3169636   0.6283382   0.6196072
 Si core  0.0281406   0.4310464   0.3910081
 Si core  0.0699407   0.7839127   0.7492892
 Si core  0.9899675   0.9027184   0.6189021
 Si core  0.2982549   0.8821276   0.4212663
 Si core  0.8024538   0.9378096   0.4062025
 Si core  0.4569364   0.8646531   0.2960443
 Si core  0.7572279   0.0682463   0.6253036
 Si core  0.5981650   0.4252036   0.5157170
 Si core  0.4213334   0.4691251   0.0078175
 Si core  0.3588527   0.3951865   0.7545675
 Si core  0.1581322   0.5058079   0.3858452
 Si core  0.7529561   0.2150134   0.4308646
 Si core  0.7235818   0.6440191   0.8048265
 Si core  0.3794406   0.0987924   0.8075389
 Si core  0.1113791   0.7653330   0.8466528
 Si core  0.5533529   0.1934969   0.7966375
 Si core  0.7271919   0.5786225   0.0902810
 Si core  0.6839274   0.8697023   0.7126157
 Si core  0.4133488   0.6944115   0.1322467
 Si core  0.5272536   0.0492615   0.2147874
 Si core  0.3844843   0.1034329   0.9165066
 Si core  0.0603245   0.9884601   0.6397730
 Si core  0.4401885   0.7582614   0.2998729
 Si core  0.4322049   0.9491422   0.0073229
 Si core  0.4611336   0.5193198   0.5515487
 Si core  0.7719224   0.4448224   0.3950653
 Si core  0.9558807   0.5298275   0.7361241
 Si core  0.0462980   0.1888328   0.7870563
 Si core  0.5509747   0.5565539   0.1334221
 Si core  0.6496774   0.4360658   0.0991935
 Si core  0.8521725   0.8064097   0.7064353
 Si core  0.9736114   0.6811726   0.8494158

library stillinger_weber
output xyz gulp.xyz
output shengbte
broaden scale 5.0
omega_af rads 0.0 2.76 3615.0
temperature 300
species   1
Si     core    0.000000  
